86050.2
2 0 26 27 28 1 25 137 132 113 112 133 134 135 136 150 149 5 4 23 24 30 6 7 22 31 148 128 115 114 129 130 131 138 139 147 9 8 20 21 32 10 11 19 33 146 124 117 116 125 126 127 140 141 145 12 13 17 18 34 14 15 16 35 144 143 120 119 118 121 122 142 123 111 88 89 87 86 85 90 91 110 109 92 93 84 83 82 94 95 108 107 96 97 81 80 79 98 99 106 105 100 101 77 78 76 102 103 104 3 29 43 61 74 60 40 41 75 42 39 44 73 45 46 47 62 72 48 38 49 63 71 50 51 52 64 70 65 69 55 66 68 67 59 58 36 57 56 54 53 37 151 
